DIMACS_lns/graph-1000-777.col
p edge 1000 1757
e 1 290
e 1 786
e 1 22
e 1 193
e 1 159
e 2 949
e 2 212
e 2 944
e 2 730
e 2 580
e 2 591
e 2 93
e 2 884
e 2 587
e 3 58
e 3 184
e 3 204
e 3 218
e 3 970
e 3 530
e 4 494
e 4 57
e 4 759
e 4 941
e 4 640
e 4 409
e 7 521
e 7 23
e 7 605
e 7 449
e 8 243
e 8 937
e 8 55
e 8 292
e 8 56
e 8 708
e 9 636
e 9 254
e 9 933
e 9 707
e 10 842
e 10 758
e 10 824
e 10 790
e 11 940
e 11 55
e 11 749
e 12 313
e 12 395
e 12 952
e 13 888
e 13 534
e 13 801
e 13 834
e 13 381
e 13 912
e 14 623
e 14 489
e 14 415
e 14 618
e 14 984
e 14 716
e 14 775
e 14 165
e 15 176
e 15 952
e 15 46
e 15 754
e 15 37
e 18 159
e 18 84
e 18 213
e 18 776
e 19 58
e 19 349
e 19 654
e 19 360
e 19 911
e 20 326
e 20 676
e 20 368
e 20 705
e 21 162
e 21 873
e 21 516
e 21 299
e 21 26
e 22 163
e 22 845
e 22 651
e 22 255
e 22 918
e 22 357
e 23 209
e 23 777
e 23 423
e 23 469
e 23 818
e 23 573
e 24 841
e 24 512
e 24 562
e 24 700
e 24 860
e 25 299
e 25 556
e 25 291
e 25 602
e 25 195
e 25 699
e 25 425
e 25 26
e 25 534
e 26 784
e 26 674
e 26 964
e 26 773
e 26 38
e 26 155
e 26 312
e 27 664
e 27 568
e 27 256
e 29 891
e 29 857
e 29 250
e 29 565
e 29 261
e 30 805
e 30 684
e 30 71
e 30 329
e 30 962
e 31 72
e 31 911
e 31 288
e 31 887
e 31 293
e 31 139
e 34 815
e 34 241
e 34 580
e 35 309
e 35 566
e 35 828
e 35 730
e 35 670
e 35 737
e 36 755
e 36 717
e 36 772
e 36 211
e 37 824
e 37 530
e 38 129
e 38 555
e 38 992
e 38 678
e 39 72
e 39 619
e 39 686
e 39 807
e 40 327
e 40 602
e 40 313
e 41 301
e 41 688
e 41 370
e 43 158
e 43 902
e 43 288
e 43 979
e 45 734
e 45 265
e 45 491
e 45 847
e 46 506
e 46 52
e 46 540
e 46 219
e 47 963
e 47 511
e 47 130
e 48 288
e 48 514
e 48 456
e 48 405
e 48 326
e 48 73
e 49 444
e 49 695
e 49 685
e 49 894
e 49 609
e 49 487
e 50 453
e 50 789
e 50 546
e 50 724
e 51 749
e 51 527
e 51 715
e 51 602
e 52 335
e 52 499
e 52 84
e 55 596
e 55 474
e 56 252
e 56 890
e 56 373
e 57 409
e 57 658
e 57 296
e 58 787
e 58 909
e 58 882
e 58 712
e 59 173
e 59 141
e 59 88
e 60 747
e 60 248
e 60 515
e 60 173
e 60 126
e 62 784
e 62 731
e 62 956
e 63 996
e 63 567
e 63 235
e 64 292
e 64 740
e 64 656
e 64 126
e 64 421
e 64 230
e 65 813
e 65 469
e 65 665
e 66 355
e 66 997
e 66 948
e 66 398
e 66 639
e 66 377
e 67 309
e 67 436
e 67 687
e 69 548
e 69 344
e 69 305
e 70 945
e 70 158
e 70 162
e 71 444
e 71 521
e 71 238
e 71 833
e 72 660
e 73 827
e 73 646
e 73 103
e 75 521
e 75 101
e 75 369
e 75 394
e 75 949
e 76 355
e 76 116
e 76 210
e 76 245
e 77 744
e 77 102
e 77 918
e 78 949
e 78 430
e 78 756
e 78 576
e 79 151
e 79 665
e 79 699
e 79 354
e 80 902
e 80 526
e 80 672
e 83 656
e 83 967
e 83 438
e 84 156
e 84 367
e 84 438
e 85 902
e 85 515
e 85 242
e 85 163
e 86 430
e 86 869
e 86 116
e 86 547
e 87 488
e 87 717
e 87 380
e 88 650
e 88 928
e 88 524
e 88 828
e 88 371
e 89 439
e 89 332
e 89 247
e 89 959
e 90 869
e 90 534
e 90 584
e 91 105
e 91 803
e 91 874
e 91 210
e 92 720
e 92 642
e 92 580
e 92 608
e 92 930
e 92 869
e 93 359
e 93 301
e 94 460
e 94 464
e 94 364
e 94 189
e 94 114
e 95 480
e 95 366
e 95 410
e 96 393
e 96 509
e 96 464
e 97 435
e 97 450
e 97 327
e 97 381
e 97 614
e 100 912
e 100 163
e 100 871
e 101 918
e 101 698
e 101 773
e 101 886
e 101 987
e 102 870
e 102 364
e 102 269
e 102 426
e 103 645
e 103 342
e 103 513
e 103 688
e 103 119
e 104 245
e 104 377
e 104 505
e 104 607
e 105 189
e 105 956
e 105 877
e 105 850
e 105 916
e 109 428
e 109 486
e 109 398
e 110 840
e 110 880
e 110 650
e 110 806
e 113 477
e 113 303
e 113 724
e 113 595
e 114 471
e 114 654
e 114 842
e 114 585
e 114 818
e 114 974
e 114 664
e 115 688
e 115 334
e 115 442
e 116 493
e 116 635
e 116 610
e 116 270
e 117 132
e 117 712
e 117 350
e 117 920
e 117 961
e 117 841
e 118 928
e 118 360
e 118 215
e 118 564
e 118 760
e 118 581
e 119 802
e 119 877
e 119 897
e 120 367
e 120 485
e 120 699
e 121 347
e 121 925
e 121 888
e 121 873
e 121 524
e 121 769
e 121 982
e 123 878
e 123 678
e 123 912
e 123 920
e 124 409
e 124 218
e 124 783
e 124 364
e 125 613
e 125 602
e 125 186
e 125 816
e 125 462
e 126 261
e 126 749
e 126 676
e 126 868
e 128 765
e 128 212
e 128 980
e 129 485
e 129 300
e 129 743
e 129 355
e 129 374
e 129 838
e 130 317
e 130 816
e 130 265
e 131 699
e 131 157
e 131 873
e 131 516
e 131 862
e 131 821
e 131 914
e 132 672
e 132 158
e 132 967
e 132 987
e 132 922
e 132 285
e 132 276
e 134 509
e 134 296
e 134 534
e 134 922
e 134 952
e 134 980
e 135 428
e 135 807
e 135 687
e 135 757
e 135 559
e 135 353
e 135 267
e 136 204
e 136 958
e 136 446
e 138 897
e 138 563
e 138 454
e 139 850
e 139 536
e 139 261
e 139 316
e 140 145
e 140 414
e 140 207
e 140 884
e 140 731
e 141 166
e 141 960
e 141 368
e 141 370
e 141 329
e 141 658
e 141 516
e 143 342
e 143 688
e 143 166
e 145 958
e 145 675
e 145 390
e 146 489
e 146 619
e 146 269
e 146 159
e 146 705
e 146 371
e 146 859
e 146 577
e 146 596
e 146 834
e 147 214
e 147 875
e 147 484
e 147 235
e 147 532
e 150 910
e 150 382
e 150 756
e 150 484
e 150 322
e 151 176
e 151 225
e 151 498
e 151 782
e 151 568
e 151 425
e 151 371
e 154 661
e 154 462
e 154 166
e 154 503
e 154 317
e 155 605
e 155 452
e 155 616
e 156 208
e 156 402
e 156 317
e 156 484
e 157 965
e 157 642
e 157 484
e 158 886
e 158 349
e 158 724
e 158 371
e 159 680
e 159 973
e 159 890
e 159 589
e 160 195
e 160 256
e 160 333
e 160 908
e 161 651
e 161 366
e 161 397
e 161 480
e 161 515
e 162 911
e 162 208
e 162 436
e 162 878
e 162 815
e 162 353
e 162 734
e 163 759
e 163 789
e 163 381
e 163 373
e 163 481
e 163 439
e 163 179
e 165 288
e 165 254
e 165 654
e 165 760
e 166 536
e 166 460
e 167 883
e 167 891
e 167 254
e 167 275
e 167 933
e 167 420
e 167 928
e 171 750
e 171 653
e 171 323
e 171 902
e 171 564
e 173 587
e 173 765
e 173 824
e 173 722
e 176 886
e 177 338
e 177 432
e 177 485
e 178 799
e 178 559
e 178 213
e 178 930
e 179 309
e 179 726
e 180 936
e 180 553
e 180 807
e 180 833
e 180 969
e 180 660
e 181 528
e 181 580
e 181 911
e 182 792
e 182 925
e 182 592
e 182 484
e 184 527
e 184 304
e 184 662
e 184 618
e 184 688
e 184 893
e 186 322
e 186 274
e 186 553
e 188 333
e 188 193
e 188 546
e 189 822
e 189 717
e 189 613
e 191 803
e 191 828
e 191 263
e 191 242
e 191 412
e 191 435
e 193 909
e 193 269
e 193 383
e 193 724
e 193 682
e 193 344
e 193 737
e 194 217
e 194 241
e 194 990
e 194 787
e 195 295
e 197 927
e 197 582
e 197 516
e 197 532
e 197 240
e 199 757
e 199 613
e 199 729
e 200 866
e 200 490
e 200 640
e 200 559
e 201 654
e 201 830
e 201 973
e 202 927
e 202 980
e 202 491
e 202 885
e 203 239
e 203 720
e 203 269
e 203 464
e 203 566
e 203 707
e 204 647
e 204 842
e 204 480
e 204 264
e 204 953
e 204 304
e 204 487
e 207 694
e 207 729
e 207 735
e 208 612
e 208 735
e 209 382
e 209 686
e 209 864
e 209 734
e 210 492
e 210 354
e 210 661
e 210 878
e 211 264
e 211 531
e 212 250
e 212 765
e 212 226
e 212 325
e 212 817
e 212 324
e 212 644
e 213 552
e 213 437
e 213 660
e 214 970
e 214 995
e 214 327
e 214 318
e 215 901
e 215 429
e 215 803
e 215 974
e 215 464
e 215 780
e 217 453
e 217 874
e 217 712
e 218 344
e 218 965
e 218 348
e 218 687
e 218 352
e 219 862
e 219 897
e 219 608
e 219 544
e 219 819
e 219 944
e 220 750
e 220 373
e 220 223
e 220 260
e 223 646
e 223 804
e 224 898
e 224 698
e 224 423
e 225 943
e 225 324
e 225 371
e 225 676
e 225 304
e 225 236
e 226 547
e 226 712
e 226 895
e 227 955
e 227 535
e 227 970
e 227 983
e 227 985
e 227 571
e 230 824
e 230 575
e 230 407
e 231 261
e 231 602
e 231 808
e 233 407
e 233 375
e 233 839
e 235 688
e 235 912
e 235 362
e 235 283
e 235 960
e 236 475
e 236 617
e 236 524
e 236 674
e 236 641
e 237 955
e 237 420
e 237 824
e 238 878
e 238 505
e 238 880
e 239 629
e 239 686
e 239 875
e 240 905
e 240 805
e 241 388
e 241 994
e 241 799
e 241 492
e 242 755
e 242 726
e 242 529
e 243 347
e 243 562
e 243 724
e 245 859
e 245 497
e 245 757
e 245 917
e 246 730
e 246 589
e 246 273
e 246 894
e 247 516
e 247 756
e 247 844
e 247 314
e 247 508
e 248 972
e 248 412
e 248 818
e 250 721
e 250 820
e 250 552
e 250 417
e 252 970
e 252 749
e 252 647
e 252 592
e 252 416
e 252 608
e 252 321
e 252 398
e 253 769
e 253 392
e 253 369
e 253 779
e 254 869
e 254 751
e 254 412
e 254 318
e 254 925
e 254 640
e 255 580
e 255 568
e 255 347
e 255 717
e 256 869
e 256 426
e 256 677
e 257 512
e 257 662
e 257 649
e 257 728
e 260 312
e 260 776
e 261 332
e 262 609
e 262 656
e 262 360
e 262 673
e 263 432
e 263 602
e 263 808
e 264 639
e 264 777
e 264 276
e 265 979
e 265 707
e 265 283
e 267 852
e 267 274
e 267 668
e 269 486
e 269 709
e 269 790
e 270 557
e 270 833
e 270 381
e 271 326
e 271 296
e 271 331
e 272 895
e 272 636
e 272 806
e 272 335
e 273 776
e 273 303
e 273 711
e 274 694
e 274 392
e 274 879
e 274 740
e 275 899
e 275 450
e 276 290
e 276 584
e 276 747
e 276 801
e 283 895
e 283 855
e 285 412
e 285 892
e 287 362
e 287 534
e 287 644
e 287 525
e 288 537
e 290 624
e 290 731
e 290 439
e 290 303
e 291 540
e 291 339
e 291 511
e 291 673
e 291 556
e 292 615
e 292 717
e 292 356
e 292 417
e 293 844
e 293 688
e 293 821
e 295 505
e 295 934
e 295 885
e 295 627
e 295 338
e 296 807
e 296 791
e 296 523
e 298 612
e 298 832
e 298 480
e 299 326
e 299 369
e 299 847
e 299 792
e 299 562
e 300 962
e 300 510
e 300 420
e 301 908
e 301 815
e 301 450
e 301 498
e 303 387
e 303 722
e 304 684
e 304 553
e 304 639
e 304 548
e 305 934
e 305 676
e 305 357
e 309 728
e 309 644
e 309 347
e 309 400
e 312 552
e 312 979
e 312 658
e 312 855
e 313 436
e 314 777
e 314 325
e 314 639
e 316 642
e 316 595
e 317 983
e 317 512
e 318 379
e 321 717
e 321 419
e 321 488
e 321 704
e 321 590
e 322 531
e 322 651
e 322 655
e 323 822
e 323 650
e 323 684
e 323 791
e 324 474
e 324 419
e 325 414
e 325 612
e 326 357
e 327 450
e 327 855
e 328 559
e 328 678
e 328 735
e 329 772
e 329 617
e 329 349
e 330 962
e 330 545
e 330 446
e 330 953
e 331 807
e 331 959
e 332 429
e 333 860
e 334 870
e 334 864
e 334 569
e 334 898
e 335 803
e 335 982
e 335 360
e 338 852
e 339 834
e 339 490
e 339 786
e 339 387
e 341 542
e 341 456
e 341 469
e 341 918
e 341 548
e 342 357
e 342 909
e 343 662
e 343 624
e 343 587
e 344 893
e 344 980
e 344 963
e 347 385
e 348 492
e 348 356
e 349 365
e 349 822
e 349 760
e 349 682
e 349 655
e 350 618
e 350 364
e 350 934
e 350 577
e 351 576
e 351 904
e 351 590
e 352 503
e 352 371
e 352 589
e 352 926
e 353 592
e 353 866
e 353 963
e 354 450
e 354 512
e 354 750
e 356 430
e 356 841
e 356 557
e 356 423
e 357 708
e 357 890
e 357 495
e 359 994
e 359 901
e 359 977
e 360 737
e 360 623
e 360 893
e 362 544
e 362 686
e 362 933
e 364 419
e 364 489
e 364 841
e 365 746
e 365 454
e 365 420
e 366 916
e 366 862
e 366 952
e 367 817
e 367 791
e 367 886
e 368 958
e 368 552
e 368 905
e 369 374
e 369 509
e 370 741
e 370 708
e 371 732
e 371 481
e 372 744
e 372 617
e 372 573
e 372 898
e 373 942
e 373 484
e 373 990
e 374 839
e 374 958
e 374 922
e 374 914
e 375 755
e 375 618
e 377 540
e 377 626
e 379 419
e 379 576
e 380 402
e 380 819
e 382 803
e 382 802
e 382 791
e 382 454
e 382 665
e 383 944
e 383 885
e 383 988
e 385 522
e 385 454
e 387 677
e 387 708
e 388 988
e 388 922
e 388 996
e 388 746
e 388 716
e 390 822
e 390 899
e 390 492
e 391 581
e 391 830
e 391 619
e 392 694
e 392 665
e 393 767
e 393 498
e 394 852
e 394 960
e 394 769
e 395 817
e 395 908
e 395 918
e 397 985
e 397 769
e 400 531
e 400 894
e 401 635
e 401 844
e 401 653
e 401 719
e 402 890
e 402 807
e 404 907
e 404 838
e 404 958
e 405 845
e 405 716
e 405 787
e 405 639
e 405 480
e 405 968
e 407 711
e 407 566
e 409 672
e 409 460
e 410 571
e 410 490
e 410 596
e 412 747
e 412 751
e 412 623
e 413 887
e 413 852
e 413 960
e 414 733
e 415 513
e 415 715
e 415 722
e 415 510
e 416 704
e 416 533
e 416 557
e 416 585
e 417 998
e 417 895
e 419 990
e 420 477
e 420 945
e 420 666
e 420 581
e 420 492
e 420 844
e 421 450
e 421 847
e 421 674
e 421 916
e 421 597
e 423 887
e 423 898
e 423 950
e 423 729
e 424 647
e 424 437
e 424 806
e 424 645
e 425 442
e 426 784
e 426 665
e 427 489
e 427 565
e 427 985
e 427 716
e 428 832
e 428 651
e 428 863
e 429 890
e 429 719
e 429 666
e 432 508
e 435 990
e 435 930
e 435 742
e 435 883
e 435 880
e 435 975
e 435 619
e 436 883
e 437 783
e 437 791
e 437 752
e 437 448
e 438 990
e 438 536
e 438 562
e 439 637
e 439 678
e 442 914
e 442 893
e 444 672
e 444 503
e 444 859
e 444 949
e 446 448
e 446 571
e 446 910
e 448 907
e 448 969
e 448 940
e 449 584
e 449 997
e 450 741
e 450 581
e 450 732
e 452 524
e 452 862
e 453 732
e 455 651
e 455 871
e 455 956
e 456 750
e 456 695
e 460 799
e 460 555
e 460 863
e 462 752
e 462 510
e 462 506
e 462 471
e 464 614
e 464 566
e 464 776
e 464 516
e 466 866
e 466 948
e 466 573
e 469 509
e 471 776
e 471 808
e 472 841
e 472 481
e 472 992
e 472 882
e 472 936
e 474 839
e 474 834
e 474 605
e 474 827
e 475 725
e 475 531
e 475 771
e 477 912
e 477 752
e 477 549
e 477 635
e 480 959
e 480 847
e 481 895
e 481 661
e 484 707
e 485 732
e 485 969
e 485 879
e 486 626
e 486 799
e 486 743
e 486 559
e 487 684
e 488 749
e 488 627
e 488 985
e 488 754
e 489 697
e 489 911
e 490 513
e 491 544
e 491 996
e 492 532
e 492 780
e 493 719
e 493 615
e 494 818
e 494 975
e 494 677
e 494 990
e 495 911
e 495 672
e 495 988
e 497 774
e 497 743
e 498 550
e 499 535
e 499 649
e 505 774
e 505 775
e 506 602
e 508 780
e 508 833
e 509 984
e 510 852
e 511 830
e 511 754
e 511 818
e 513 884
e 513 744
e 514 575
e 514 564
e 515 910
e 515 688
e 515 850
e 516 804
e 521 987
e 521 685
e 521 546
e 522 636
e 522 711
e 523 524
e 523 751
e 523 828
e 524 847
e 524 696
e 525 973
e 525 768
e 525 544
e 526 577
e 526 927
e 527 607
e 527 838
e 528 772
e 528 646
e 529 940
e 529 824
e 529 548
e 530 995
e 531 697
e 531 873
e 532 845
e 533 830
e 533 542
e 533 537
e 534 866
e 534 618
e 534 765
e 534 908
e 535 771
e 535 546
e 535 640
e 536 568
e 537 897
e 537 749
e 540 779
e 540 768
e 540 982
e 540 610
e 542 750
e 542 559
e 542 855
e 543 724
e 543 824
e 543 732
e 545 548
e 545 845
e 547 987
e 548 595
e 548 609
e 548 597
e 549 720
e 549 656
e 549 569
e 550 735
e 550 815
e 552 976
e 552 767
e 552 607
e 553 744
e 553 649
e 553 697
e 555 792
e 556 983
e 557 678
e 557 943
e 559 930
e 559 769
e 562 992
e 563 706
e 563 676
e 564 696
e 565 906
e 567 790
e 567 815
e 568 592
e 569 912
e 569 613
e 571 721
e 571 769
e 571 614
e 571 602
e 573 699
e 573 587
e 575 756
e 576 680
e 576 914
e 576 992
e 577 660
e 577 615
e 580 709
e 580 755
e 581 750
e 582 617
e 582 708
e 582 712
e 582 646
e 582 687
e 584 607
e 584 862
e 584 746
e 584 926
e 585 656
e 586 985
e 586 886
e 586 879
e 586 730
e 587 804
e 589 955
e 589 807
e 590 680
e 591 890
e 591 724
e 591 702
e 592 743
e 592 855
e 595 817
e 596 786
e 596 941
e 597 879
e 597 754
e 602 965
e 602 722
e 604 678
e 604 787
e 604 750
e 604 992
e 605 811
e 605 925
e 607 757
e 607 751
e 608 869
e 609 899
e 609 790
e 609 644
e 610 626
e 610 868
e 610 799
e 613 728
e 614 735
e 614 845
e 614 895
e 616 636
e 616 818
e 616 654
e 617 969
e 617 676
e 619 985
e 619 884
e 623 892
e 623 972
e 624 911
e 627 708
e 627 700
e 629 839
e 629 768
e 635 880
e 636 800
e 636 700
e 637 696
e 637 672
e 640 778
e 640 742
e 641 917
e 641 975
e 642 673
e 645 963
e 645 960
e 645 844
e 646 801
e 649 770
e 649 721
e 651 994
e 653 911
e 653 842
e 654 968
e 655 979
e 656 877
e 656 775
e 658 668
e 658 906
e 660 749
e 660 886
e 660 976
e 661 809
e 661 730
e 661 791
e 662 732
e 662 828
e 664 780
e 665 850
e 666 715
e 668 813
e 670 777
e 670 747
e 670 997
e 672 860
e 672 950
e 672 803
e 673 910
e 673 833
e 675 943
e 675 722
e 678 682
e 678 884
e 678 782
e 680 840
e 680 809
e 680 875
e 682 904
e 684 733
e 684 937
e 685 998
e 686 975
e 687 930
e 687 917
e 688 958
e 692 756
e 692 709
e 692 915
e 694 765
e 694 967
e 695 768
e 695 877
e 698 899
e 699 819
e 700 824
e 700 712
e 702 984
e 702 964
e 704 961
e 704 824
e 705 890
e 706 985
e 706 791
e 706 904
e 707 824
e 708 725
e 708 940
e 708 933
e 709 852
e 709 756
e 709 861
e 711 990
e 711 916
e 712 739
e 712 840
e 715 897
e 716 895
e 717 760
e 719 976
e 719 805
e 720 739
e 720 819
e 721 982
e 721 758
e 722 732
e 722 908
e 724 950
e 725 860
e 725 816
e 725 893
e 725 894
e 726 776
e 726 967
e 728 800
e 730 907
e 730 909
e 732 892
e 733 976
e 734 865
e 734 882
e 735 901
e 739 813
e 740 965
e 741 820
e 741 915
e 742 915
e 746 834
e 747 955
e 747 933
e 749 866
e 749 759
e 750 863
e 751 952
e 752 911
e 755 974
e 756 845
e 756 901
e 757 994
e 758 948
e 760 817
e 765 800
e 765 861
e 765 806
e 767 878
e 768 852
e 769 887
e 769 871
e 770 782
e 770 879
e 771 811
e 771 875
e 771 815
e 773 960
e 774 941
e 775 942
e 775 930
e 775 779
e 777 888
e 777 806
e 778 873
e 778 967
e 780 950
e 780 905
e 782 911
e 783 952
e 783 968
e 784 923
e 786 942
e 786 910
e 787 883
e 789 864
e 790 874
e 790 964
e 790 980
e 791 830
e 799 878
e 801 998
e 802 915
e 802 982
e 802 874
e 802 911
e 803 897
e 804 822
e 807 866
e 808 857
e 809 890
e 811 827
e 811 877
e 813 977
e 815 941
e 816 953
e 817 833
e 818 847
e 820 980
e 821 926
e 824 908
e 827 987
e 828 923
e 832 875
e 833 870
e 834 961
e 834 870
e 838 842
e 839 879
e 841 905
e 847 887
e 850 963
e 855 944
e 857 871
e 859 887
e 859 972
e 859 910
e 861 888
e 862 891
e 865 960
e 865 995
e 866 956
e 868 984
e 868 895
e 869 920
e 871 945
e 873 874
e 883 891
e 883 940
e 885 979
e 887 992
e 888 890
e 890 930
e 893 980
e 899 920
e 901 905
e 902 923
e 902 927
e 904 959
e 905 965
e 905 962
e 906 933
e 911 955
e 912 992
e 915 967
e 917 967
e 917 987
e 925 977
e 927 983
e 933 940
e 936 941
e 937 945
e 942 961
e 945 958
e 958 968
e 964 972
e 975 980
e 980 992
