txt_Ins/graph-1000-777.txt
n 1000
e 0 289
e 0 785
e 0 21
e 0 192
e 0 158
e 1 948
e 1 211
e 1 943
e 1 729
e 1 579
e 1 590
e 1 92
e 1 883
e 1 586
e 2 57
e 2 183
e 2 203
e 2 217
e 2 969
e 2 529
e 3 493
e 3 56
e 3 758
e 3 940
e 3 639
e 3 408
e 6 520
e 6 22
e 6 604
e 6 448
e 7 242
e 7 936
e 7 54
e 7 291
e 7 55
e 7 707
e 8 635
e 8 253
e 8 932
e 8 706
e 9 841
e 9 757
e 9 823
e 9 789
e 10 939
e 10 54
e 10 748
e 11 312
e 11 394
e 11 951
e 12 887
e 12 533
e 12 800
e 12 833
e 12 380
e 12 911
e 13 622
e 13 488
e 13 414
e 13 617
e 13 983
e 13 715
e 13 774
e 13 164
e 14 175
e 14 951
e 14 45
e 14 753
e 14 36
e 17 158
e 17 83
e 17 212
e 17 775
e 18 57
e 18 348
e 18 653
e 18 359
e 18 910
e 19 325
e 19 675
e 19 367
e 19 704
e 20 161
e 20 872
e 20 515
e 20 298
e 20 25
e 21 162
e 21 844
e 21 650
e 21 254
e 21 917
e 21 356
e 22 208
e 22 776
e 22 422
e 22 468
e 22 817
e 22 572
e 23 840
e 23 511
e 23 561
e 23 699
e 23 859
e 24 298
e 24 555
e 24 290
e 24 601
e 24 194
e 24 698
e 24 424
e 24 25
e 24 533
e 25 783
e 25 673
e 25 963
e 25 772
e 25 37
e 25 154
e 25 311
e 26 663
e 26 567
e 26 255
e 28 890
e 28 856
e 28 249
e 28 564
e 28 260
e 29 804
e 29 683
e 29 70
e 29 328
e 29 961
e 30 71
e 30 910
e 30 287
e 30 886
e 30 292
e 30 138
e 33 814
e 33 240
e 33 579
e 34 308
e 34 565
e 34 827
e 34 729
e 34 669
e 34 736
e 35 754
e 35 716
e 35 771
e 35 210
e 36 823
e 36 529
e 37 128
e 37 554
e 37 991
e 37 677
e 38 71
e 38 618
e 38 685
e 38 806
e 39 326
e 39 601
e 39 312
e 40 300
e 40 687
e 40 369
e 42 157
e 42 901
e 42 287
e 42 978
e 44 733
e 44 264
e 44 490
e 44 846
e 45 505
e 45 51
e 45 539
e 45 218
e 46 962
e 46 510
e 46 129
e 47 287
e 47 513
e 47 455
e 47 404
e 47 325
e 47 72
e 48 443
e 48 694
e 48 684
e 48 893
e 48 608
e 48 486
e 49 452
e 49 788
e 49 545
e 49 723
e 50 748
e 50 526
e 50 714
e 50 601
e 51 334
e 51 498
e 51 83
e 54 595
e 54 473
e 55 251
e 55 889
e 55 372
e 56 408
e 56 657
e 56 295
e 57 786
e 57 908
e 57 881
e 57 711
e 58 172
e 58 140
e 58 87
e 59 746
e 59 247
e 59 514
e 59 172
e 59 125
e 61 783
e 61 730
e 61 955
e 62 995
e 62 566
e 62 234
e 63 291
e 63 739
e 63 655
e 63 125
e 63 420
e 63 229
e 64 812
e 64 468
e 64 664
e 65 354
e 65 996
e 65 947
e 65 397
e 65 638
e 65 376
e 66 308
e 66 435
e 66 686
e 68 547
e 68 343
e 68 304
e 69 944
e 69 157
e 69 161
e 70 443
e 70 520
e 70 237
e 70 832
e 71 659
e 72 826
e 72 645
e 72 102
e 74 520
e 74 100
e 74 368
e 74 393
e 74 948
e 75 354
e 75 115
e 75 209
e 75 244
e 76 743
e 76 101
e 76 917
e 77 948
e 77 429
e 77 755
e 77 575
e 78 150
e 78 664
e 78 698
e 78 353
e 79 901
e 79 525
e 79 671
e 82 655
e 82 966
e 82 437
e 83 155
e 83 366
e 83 437
e 84 901
e 84 514
e 84 241
e 84 162
e 85 429
e 85 868
e 85 115
e 85 546
e 86 487
e 86 716
e 86 379
e 87 649
e 87 927
e 87 523
e 87 827
e 87 370
e 88 438
e 88 331
e 88 246
e 88 958
e 89 868
e 89 533
e 89 583
e 90 104
e 90 802
e 90 873
e 90 209
e 91 719
e 91 641
e 91 579
e 91 607
e 91 929
e 91 868
e 92 358
e 92 300
e 93 459
e 93 463
e 93 363
e 93 188
e 93 113
e 94 479
e 94 365
e 94 409
e 95 392
e 95 508
e 95 463
e 96 434
e 96 449
e 96 326
e 96 380
e 96 613
e 99 911
e 99 162
e 99 870
e 100 917
e 100 697
e 100 772
e 100 885
e 100 986
e 101 869
e 101 363
e 101 268
e 101 425
e 102 644
e 102 341
e 102 512
e 102 687
e 102 118
e 103 244
e 103 376
e 103 504
e 103 606
e 104 188
e 104 955
e 104 876
e 104 849
e 104 915
e 108 427
e 108 485
e 108 397
e 109 839
e 109 879
e 109 649
e 109 805
e 112 476
e 112 302
e 112 723
e 112 594
e 113 470
e 113 653
e 113 841
e 113 584
e 113 817
e 113 973
e 113 663
e 114 687
e 114 333
e 114 441
e 115 492
e 115 634
e 115 609
e 115 269
e 116 131
e 116 711
e 116 349
e 116 919
e 116 960
e 116 840
e 117 927
e 117 359
e 117 214
e 117 563
e 117 759
e 117 580
e 118 801
e 118 876
e 118 896
e 119 366
e 119 484
e 119 698
e 120 346
e 120 924
e 120 887
e 120 872
e 120 523
e 120 768
e 120 981
e 122 877
e 122 677
e 122 911
e 122 919
e 123 408
e 123 217
e 123 782
e 123 363
e 124 612
e 124 601
e 124 185
e 124 815
e 124 461
e 125 260
e 125 748
e 125 675
e 125 867
e 127 764
e 127 211
e 127 979
e 128 484
e 128 299
e 128 742
e 128 354
e 128 373
e 128 837
e 129 316
e 129 815
e 129 264
e 130 698
e 130 156
e 130 872
e 130 515
e 130 861
e 130 820
e 130 913
e 131 671
e 131 157
e 131 966
e 131 986
e 131 921
e 131 284
e 131 275
e 133 508
e 133 295
e 133 533
e 133 921
e 133 951
e 133 979
e 134 427
e 134 806
e 134 686
e 134 756
e 134 558
e 134 352
e 134 266
e 135 203
e 135 957
e 135 445
e 137 896
e 137 562
e 137 453
e 138 849
e 138 535
e 138 260
e 138 315
e 139 144
e 139 413
e 139 206
e 139 883
e 139 730
e 140 165
e 140 959
e 140 367
e 140 369
e 140 328
e 140 657
e 140 515
e 142 341
e 142 687
e 142 165
e 144 957
e 144 674
e 144 389
e 145 488
e 145 618
e 145 268
e 145 158
e 145 704
e 145 370
e 145 858
e 145 576
e 145 595
e 145 833
e 146 213
e 146 874
e 146 483
e 146 234
e 146 531
e 149 909
e 149 381
e 149 755
e 149 483
e 149 321
e 150 175
e 150 224
e 150 497
e 150 781
e 150 567
e 150 424
e 150 370
e 153 660
e 153 461
e 153 165
e 153 502
e 153 316
e 154 604
e 154 451
e 154 615
e 155 207
e 155 401
e 155 316
e 155 483
e 156 964
e 156 641
e 156 483
e 157 885
e 157 348
e 157 723
e 157 370
e 158 679
e 158 972
e 158 889
e 158 588
e 159 194
e 159 255
e 159 332
e 159 907
e 160 650
e 160 365
e 160 396
e 160 479
e 160 514
e 161 910
e 161 207
e 161 435
e 161 877
e 161 814
e 161 352
e 161 733
e 162 758
e 162 788
e 162 380
e 162 372
e 162 480
e 162 438
e 162 178
e 164 287
e 164 253
e 164 653
e 164 759
e 165 535
e 165 459
e 166 882
e 166 890
e 166 253
e 166 274
e 166 932
e 166 419
e 166 927
e 170 749
e 170 652
e 170 322
e 170 901
e 170 563
e 172 586
e 172 764
e 172 823
e 172 721
e 175 885
e 176 337
e 176 431
e 176 484
e 177 798
e 177 558
e 177 212
e 177 929
e 178 308
e 178 725
e 179 935
e 179 552
e 179 806
e 179 832
e 179 968
e 179 659
e 180 527
e 180 579
e 180 910
e 181 791
e 181 924
e 181 591
e 181 483
e 183 526
e 183 303
e 183 661
e 183 617
e 183 687
e 183 892
e 185 321
e 185 273
e 185 552
e 187 332
e 187 192
e 187 545
e 188 821
e 188 716
e 188 612
e 190 802
e 190 827
e 190 262
e 190 241
e 190 411
e 190 434
e 192 908
e 192 268
e 192 382
e 192 723
e 192 681
e 192 343
e 192 736
e 193 216
e 193 240
e 193 989
e 193 786
e 194 294
e 196 926
e 196 581
e 196 515
e 196 531
e 196 239
e 198 756
e 198 612
e 198 728
e 199 865
e 199 489
e 199 639
e 199 558
e 200 653
e 200 829
e 200 972
e 201 926
e 201 979
e 201 490
e 201 884
e 202 238
e 202 719
e 202 268
e 202 463
e 202 565
e 202 706
e 203 646
e 203 841
e 203 479
e 203 263
e 203 952
e 203 303
e 203 486
e 206 693
e 206 728
e 206 734
e 207 611
e 207 734
e 208 381
e 208 685
e 208 863
e 208 733
e 209 491
e 209 353
e 209 660
e 209 877
e 210 263
e 210 530
e 211 249
e 211 764
e 211 225
e 211 324
e 211 816
e 211 323
e 211 643
e 212 551
e 212 436
e 212 659
e 213 969
e 213 994
e 213 326
e 213 317
e 214 900
e 214 428
e 214 802
e 214 973
e 214 463
e 214 779
e 216 452
e 216 873
e 216 711
e 217 343
e 217 964
e 217 347
e 217 686
e 217 351
e 218 861
e 218 896
e 218 607
e 218 543
e 218 818
e 218 943
e 219 749
e 219 372
e 219 222
e 219 259
e 222 645
e 222 803
e 223 897
e 223 697
e 223 422
e 224 942
e 224 323
e 224 370
e 224 675
e 224 303
e 224 235
e 225 546
e 225 711
e 225 894
e 226 954
e 226 534
e 226 969
e 226 982
e 226 984
e 226 570
e 229 823
e 229 574
e 229 406
e 230 260
e 230 601
e 230 807
e 232 406
e 232 374
e 232 838
e 234 687
e 234 911
e 234 361
e 234 282
e 234 959
e 235 474
e 235 616
e 235 523
e 235 673
e 235 640
e 236 954
e 236 419
e 236 823
e 237 877
e 237 504
e 237 879
e 238 628
e 238 685
e 238 874
e 239 904
e 239 804
e 240 387
e 240 993
e 240 798
e 240 491
e 241 754
e 241 725
e 241 528
e 242 346
e 242 561
e 242 723
e 244 858
e 244 496
e 244 756
e 244 916
e 245 729
e 245 588
e 245 272
e 245 893
e 246 515
e 246 755
e 246 843
e 246 313
e 246 507
e 247 971
e 247 411
e 247 817
e 249 720
e 249 819
e 249 551
e 249 416
e 251 969
e 251 748
e 251 646
e 251 591
e 251 415
e 251 607
e 251 320
e 251 397
e 252 768
e 252 391
e 252 368
e 252 778
e 253 868
e 253 750
e 253 411
e 253 317
e 253 924
e 253 639
e 254 579
e 254 567
e 254 346
e 254 716
e 255 868
e 255 425
e 255 676
e 256 511
e 256 661
e 256 648
e 256 727
e 259 311
e 259 775
e 260 331
e 261 608
e 261 655
e 261 359
e 261 672
e 262 431
e 262 601
e 262 807
e 263 638
e 263 776
e 263 275
e 264 978
e 264 706
e 264 282
e 266 851
e 266 273
e 266 667
e 268 485
e 268 708
e 268 789
e 269 556
e 269 832
e 269 380
e 270 325
e 270 295
e 270 330
e 271 894
e 271 635
e 271 805
e 271 334
e 272 775
e 272 302
e 272 710
e 273 693
e 273 391
e 273 878
e 273 739
e 274 898
e 274 449
e 275 289
e 275 583
e 275 746
e 275 800
e 282 894
e 282 854
e 284 411
e 284 891
e 286 361
e 286 533
e 286 643
e 286 524
e 287 536
e 289 623
e 289 730
e 289 438
e 289 302
e 290 539
e 290 338
e 290 510
e 290 672
e 290 555
e 291 614
e 291 716
e 291 355
e 291 416
e 292 843
e 292 687
e 292 820
e 294 504
e 294 933
e 294 884
e 294 626
e 294 337
e 295 806
e 295 790
e 295 522
e 297 611
e 297 831
e 297 479
e 298 325
e 298 368
e 298 846
e 298 791
e 298 561
e 299 961
e 299 509
e 299 419
e 300 907
e 300 814
e 300 449
e 300 497
e 302 386
e 302 721
e 303 683
e 303 552
e 303 638
e 303 547
e 304 933
e 304 675
e 304 356
e 308 727
e 308 643
e 308 346
e 308 399
e 311 551
e 311 978
e 311 657
e 311 854
e 312 435
e 313 776
e 313 324
e 313 638
e 315 641
e 315 594
e 316 982
e 316 511
e 317 378
e 320 716
e 320 418
e 320 487
e 320 703
e 320 589
e 321 530
e 321 650
e 321 654
e 322 821
e 322 649
e 322 683
e 322 790
e 323 473
e 323 418
e 324 413
e 324 611
e 325 356
e 326 449
e 326 854
e 327 558
e 327 677
e 327 734
e 328 771
e 328 616
e 328 348
e 329 961
e 329 544
e 329 445
e 329 952
e 330 806
e 330 958
e 331 428
e 332 859
e 333 869
e 333 863
e 333 568
e 333 897
e 334 802
e 334 981
e 334 359
e 337 851
e 338 833
e 338 489
e 338 785
e 338 386
e 340 541
e 340 455
e 340 468
e 340 917
e 340 547
e 341 356
e 341 908
e 342 661
e 342 623
e 342 586
e 343 892
e 343 979
e 343 962
e 346 384
e 347 491
e 347 355
e 348 364
e 348 821
e 348 759
e 348 681
e 348 654
e 349 617
e 349 363
e 349 933
e 349 576
e 350 575
e 350 903
e 350 589
e 351 502
e 351 370
e 351 588
e 351 925
e 352 591
e 352 865
e 352 962
e 353 449
e 353 511
e 353 749
e 355 429
e 355 840
e 355 556
e 355 422
e 356 707
e 356 889
e 356 494
e 358 993
e 358 900
e 358 976
e 359 736
e 359 622
e 359 892
e 361 543
e 361 685
e 361 932
e 363 418
e 363 488
e 363 840
e 364 745
e 364 453
e 364 419
e 365 915
e 365 861
e 365 951
e 366 816
e 366 790
e 366 885
e 367 957
e 367 551
e 367 904
e 368 373
e 368 508
e 369 740
e 369 707
e 370 731
e 370 480
e 371 743
e 371 616
e 371 572
e 371 897
e 372 941
e 372 483
e 372 989
e 373 838
e 373 957
e 373 921
e 373 913
e 374 754
e 374 617
e 376 539
e 376 625
e 378 418
e 378 575
e 379 401
e 379 818
e 381 802
e 381 801
e 381 790
e 381 453
e 381 664
e 382 943
e 382 884
e 382 987
e 384 521
e 384 453
e 386 676
e 386 707
e 387 987
e 387 921
e 387 995
e 387 745
e 387 715
e 389 821
e 389 898
e 389 491
e 390 580
e 390 829
e 390 618
e 391 693
e 391 664
e 392 766
e 392 497
e 393 851
e 393 959
e 393 768
e 394 816
e 394 907
e 394 917
e 396 984
e 396 768
e 399 530
e 399 893
e 400 634
e 400 843
e 400 652
e 400 718
e 401 889
e 401 806
e 403 906
e 403 837
e 403 957
e 404 844
e 404 715
e 404 786
e 404 638
e 404 479
e 404 967
e 406 710
e 406 565
e 408 671
e 408 459
e 409 570
e 409 489
e 409 595
e 411 746
e 411 750
e 411 622
e 412 886
e 412 851
e 412 959
e 413 732
e 414 512
e 414 714
e 414 721
e 414 509
e 415 703
e 415 532
e 415 556
e 415 584
e 416 997
e 416 894
e 418 989
e 419 476
e 419 944
e 419 665
e 419 580
e 419 491
e 419 843
e 420 449
e 420 846
e 420 673
e 420 915
e 420 596
e 422 886
e 422 897
e 422 949
e 422 728
e 423 646
e 423 436
e 423 805
e 423 644
e 424 441
e 425 783
e 425 664
e 426 488
e 426 564
e 426 984
e 426 715
e 427 831
e 427 650
e 427 862
e 428 889
e 428 718
e 428 665
e 431 507
e 434 989
e 434 929
e 434 741
e 434 882
e 434 879
e 434 974
e 434 618
e 435 882
e 436 782
e 436 790
e 436 751
e 436 447
e 437 989
e 437 535
e 437 561
e 438 636
e 438 677
e 441 913
e 441 892
e 443 671
e 443 502
e 443 858
e 443 948
e 445 447
e 445 570
e 445 909
e 447 906
e 447 968
e 447 939
e 448 583
e 448 996
e 449 740
e 449 580
e 449 731
e 451 523
e 451 861
e 452 731
e 454 650
e 454 870
e 454 955
e 455 749
e 455 694
e 459 798
e 459 554
e 459 862
e 461 751
e 461 509
e 461 505
e 461 470
e 463 613
e 463 565
e 463 775
e 463 515
e 465 865
e 465 947
e 465 572
e 468 508
e 470 775
e 470 807
e 471 840
e 471 480
e 471 991
e 471 881
e 471 935
e 473 838
e 473 833
e 473 604
e 473 826
e 474 724
e 474 530
e 474 770
e 476 911
e 476 751
e 476 548
e 476 634
e 479 958
e 479 846
e 480 894
e 480 660
e 483 706
e 484 731
e 484 968
e 484 878
e 485 625
e 485 798
e 485 742
e 485 558
e 486 683
e 487 748
e 487 626
e 487 984
e 487 753
e 488 696
e 488 910
e 489 512
e 490 543
e 490 995
e 491 531
e 491 779
e 492 718
e 492 614
e 493 817
e 493 974
e 493 676
e 493 989
e 494 910
e 494 671
e 494 987
e 496 773
e 496 742
e 497 549
e 498 534
e 498 648
e 504 773
e 504 774
e 505 601
e 507 779
e 507 832
e 508 983
e 509 851
e 510 829
e 510 753
e 510 817
e 512 883
e 512 743
e 513 574
e 513 563
e 514 909
e 514 687
e 514 849
e 515 803
e 520 986
e 520 684
e 520 545
e 521 635
e 521 710
e 522 523
e 522 750
e 522 827
e 523 846
e 523 695
e 524 972
e 524 767
e 524 543
e 525 576
e 525 926
e 526 606
e 526 837
e 527 771
e 527 645
e 528 939
e 528 823
e 528 547
e 529 994
e 530 696
e 530 872
e 531 844
e 532 829
e 532 541
e 532 536
e 533 865
e 533 617
e 533 764
e 533 907
e 534 770
e 534 545
e 534 639
e 535 567
e 536 896
e 536 748
e 539 778
e 539 767
e 539 981
e 539 609
e 541 749
e 541 558
e 541 854
e 542 723
e 542 823
e 542 731
e 544 547
e 544 844
e 546 986
e 547 594
e 547 608
e 547 596
e 548 719
e 548 655
e 548 568
e 549 734
e 549 814
e 551 975
e 551 766
e 551 606
e 552 743
e 552 648
e 552 696
e 554 791
e 555 982
e 556 677
e 556 942
e 558 929
e 558 768
e 561 991
e 562 705
e 562 675
e 563 695
e 564 905
e 566 789
e 566 814
e 567 591
e 568 911
e 568 612
e 570 720
e 570 768
e 570 613
e 570 601
e 572 698
e 572 586
e 574 755
e 575 679
e 575 913
e 575 991
e 576 659
e 576 614
e 579 708
e 579 754
e 580 749
e 581 616
e 581 707
e 581 711
e 581 645
e 581 686
e 583 606
e 583 861
e 583 745
e 583 925
e 584 655
e 585 984
e 585 885
e 585 878
e 585 729
e 586 803
e 588 954
e 588 806
e 589 679
e 590 889
e 590 723
e 590 701
e 591 742
e 591 854
e 594 816
e 595 785
e 595 940
e 596 878
e 596 753
e 601 964
e 601 721
e 603 677
e 603 786
e 603 749
e 603 991
e 604 810
e 604 924
e 606 756
e 606 750
e 607 868
e 608 898
e 608 789
e 608 643
e 609 625
e 609 867
e 609 798
e 612 727
e 613 734
e 613 844
e 613 894
e 615 635
e 615 817
e 615 653
e 616 968
e 616 675
e 618 984
e 618 883
e 622 891
e 622 971
e 623 910
e 626 707
e 626 699
e 628 838
e 628 767
e 634 879
e 635 799
e 635 699
e 636 695
e 636 671
e 639 777
e 639 741
e 640 916
e 640 974
e 641 672
e 644 962
e 644 959
e 644 843
e 645 800
e 648 769
e 648 720
e 650 993
e 652 910
e 652 841
e 653 967
e 654 978
e 655 876
e 655 774
e 657 667
e 657 905
e 659 748
e 659 885
e 659 975
e 660 808
e 660 729
e 660 790
e 661 731
e 661 827
e 663 779
e 664 849
e 665 714
e 667 812
e 669 776
e 669 746
e 669 996
e 671 859
e 671 949
e 671 802
e 672 909
e 672 832
e 674 942
e 674 721
e 677 681
e 677 883
e 677 781
e 679 839
e 679 808
e 679 874
e 681 903
e 683 732
e 683 936
e 684 997
e 685 974
e 686 929
e 686 916
e 687 957
e 691 755
e 691 708
e 691 914
e 693 764
e 693 966
e 694 767
e 694 876
e 697 898
e 698 818
e 699 823
e 699 711
e 701 983
e 701 963
e 703 960
e 703 823
e 704 889
e 705 984
e 705 790
e 705 903
e 706 823
e 707 724
e 707 939
e 707 932
e 708 851
e 708 755
e 708 860
e 710 989
e 710 915
e 711 738
e 711 839
e 714 896
e 715 894
e 716 759
e 718 975
e 718 804
e 719 738
e 719 818
e 720 981
e 720 757
e 721 731
e 721 907
e 723 949
e 724 859
e 724 815
e 724 892
e 724 893
e 725 775
e 725 966
e 727 799
e 729 906
e 729 908
e 731 891
e 732 975
e 733 864
e 733 881
e 734 900
e 738 812
e 739 964
e 740 819
e 740 914
e 741 914
e 745 833
e 746 954
e 746 932
e 748 865
e 748 758
e 749 862
e 750 951
e 751 910
e 754 973
e 755 844
e 755 900
e 756 993
e 757 947
e 759 816
e 764 799
e 764 860
e 764 805
e 766 877
e 767 851
e 768 886
e 768 870
e 769 781
e 769 878
e 770 810
e 770 874
e 770 814
e 772 959
e 773 940
e 774 941
e 774 929
e 774 778
e 776 887
e 776 805
e 777 872
e 777 966
e 779 949
e 779 904
e 781 910
e 782 951
e 782 967
e 783 922
e 785 941
e 785 909
e 786 882
e 788 863
e 789 873
e 789 963
e 789 979
e 790 829
e 798 877
e 800 997
e 801 914
e 801 981
e 801 873
e 801 910
e 802 896
e 803 821
e 806 865
e 807 856
e 808 889
e 810 826
e 810 876
e 812 976
e 814 940
e 815 952
e 816 832
e 817 846
e 819 979
e 820 925
e 823 907
e 826 986
e 827 922
e 831 874
e 832 869
e 833 960
e 833 869
e 837 841
e 838 878
e 840 904
e 846 886
e 849 962
e 854 943
e 856 870
e 858 886
e 858 971
e 858 909
e 860 887
e 861 890
e 864 959
e 864 994
e 865 955
e 867 983
e 867 894
e 868 919
e 870 944
e 872 873
e 882 890
e 882 939
e 884 978
e 886 991
e 887 889
e 889 929
e 892 979
e 898 919
e 900 904
e 901 922
e 901 926
e 903 958
e 904 964
e 904 961
e 905 932
e 910 954
e 911 991
e 914 966
e 916 966
e 916 986
e 924 976
e 926 982
e 932 939
e 935 940
e 936 944
e 941 960
e 944 957
e 957 967
e 963 971
e 974 979
e 979 991
